p cnf 12 50 
-4 -1 6 0
10 -7 -9 0
-7 1 -2 0
-9 1 8 0
12 11 1 0
12 -10 9 0
-11 -7 -4 0
8 -1 7 0
12 1 -8 0
-4 -5 -2 0
11 -2 4 0
-4 -8 2 0
6 -7 -3 0
2 4 -7 0
-10 -4 7 0
7 -8 4 0
-8 -9 4 0
8 -1 -7 0
-7 8 4 0
1 6 -10 0
-10 8 9 0
1 -7 6 0
5 8 9 0
-10 6 -5 0
3 7 6 0
12 -5 -3 0
11 -3 4 0
-8 7 11 0
10 6 -11 0
-12 -2 8 0
-3 1 7 0
2 12 -11 0
-8 -3 1 0
-11 -9 10 0
-1 -7 9 0
5 4 -8 0
11 8 1 0
-6 -5 3 0
1 -12 -7 0
-3 -9 7 0
10 12 -4 0
-9 4 -8 0
4 1 8 0
-3 -6 -8 0
-5 8 4 0
-4 -11 -3 0
-11 -3 1 0
-3 -6 -12 0
2 4 -3 0
-8 -12 -11 0
